10 16 14 31 46 0 90 44 97 22 59 76 61 86 56 19 85 34 26 11 6 8 54 82 33 28 45 42 2 13 29 38 95 47 99 70 40 51 77 4 36 32 75 12 94 81 84 67 49 43 72 1 63 53 39 68 80 24 50 60 57 66 27 92 88 7 91 41 30 79 55 74 96 18 3 64 65 25 69 21 93 15 87 17 52 78 23 37 98 35 83 89 9 71 73 58 20 48 5 62 